N = 3;
Capacity = 4;
nbVehicles = 3;
maxVisitsPerCustomer = 2;
ItemsPerCustomer = [6, 3, 2];
maxItemsPerCustomer = 6;
binCapacity = 50;
SizesOfItems = [|
  39, 30, 29, 27, 22, 21
| 28, 23, 22, 0, 0, 0
| 50, 50, 0, 0, 0, 0
|];
Distance = [|
  0, 50, 35, 45
| 50, 0, 53, 92
| 35, 53, 0, 73
| 45, 92, 73, 0
|];
